NAME CFLP
ROWS
 N  OBJ
 E  demand_1
 E  demand_2
 E  demand_3
 E  demand_4
 E  demand_5
 E  demand_6
 E  demand_7
 E  demand_8
 E  demand_9
 E  demand_10
 E  demand_11
 E  demand_12
 E  demand_13
 E  demand_14
 E  demand_15
 E  demand_16
 E  demand_17
 E  demand_18
 E  demand_19
 E  demand_20
 E  demand_21
 E  demand_22
 E  demand_23
 L  c_disjunction_1_diajunct_1
 L  c_disjunction_1_disjunct_2
 E  R25     
 L  c_disjunction_2_diajunct_1
 L  c_disjunction_2_disjunct_2
 E  R28     
 L  c_disjunction_3_diajunct_1
 L  c_disjunction_3_disjunct_2
 E  R31     
 L  c_disjunction_4_diajunct_1
 L  c_disjunction_4_disjunct_2
 E  R34     
 L  c_disjunction_5_diajunct_1
 L  c_disjunction_5_disjunct_2
 E  R37     
 L  c_disjunction_6_diajunct_1
 L  c_disjunction_6_disjunct_2
 E  R40     
 L  c_disjunction_7_diajunct_1
 L  c_disjunction_7_disjunct_2
 E  R43     
 L  c_disjunction_8_diajunct_1
 L  c_disjunction_8_disjunct_2
 E  R46     
 L  c_disjunction_9_diajunct_1
 L  c_disjunction_9_disjunct_2
 E  R49     
 L  c_disjunction_10_diajunct_1
 L  c_disjunction_10_disjunct_2
 E  R52     
 L  c_disjunction_11_diajunct_1
 L  c_disjunction_11_disjunct_2
 E  R55     
 L  c_disjunction_12_diajunct_1
 L  c_disjunction_12_disjunct_2
 E  R58     
 L  c_disjunction_13_diajunct_1
 L  c_disjunction_13_disjunct_2
 E  R61     
 L  c_disjunction_14_diajunct_1
 L  c_disjunction_14_disjunct_2
 E  R64     
 L  c_disjunction_15_diajunct_1
 L  c_disjunction_15_disjunct_2
 E  R67     
 L  c_disjunction_16_diajunct_1
 L  c_disjunction_16_disjunct_2
 E  R70     
 L  c_disjunction_17_diajunct_1
 L  c_disjunction_17_disjunct_2
 E  R73     
 L  c_disjunction_18_diajunct_1
 L  c_disjunction_18_disjunct_2
 E  R76     
 L  c_disjunction_19_diajunct_1
 L  c_disjunction_19_disjunct_2
 E  R79     
 L  c_disjunction_20_diajunct_1
 L  c_disjunction_20_disjunct_2
 E  R82     
 L  c_disjunction_21_diajunct_1
 L  c_disjunction_21_disjunct_2
 E  R85     
 L  c_disjunction_22_diajunct_1
 L  c_disjunction_22_disjunct_2
 E  R88     
 L  c_disjunction_23_diajunct_1
 L  c_disjunction_23_disjunct_2
 E  R91     
COLUMNS
    MARKER    'MARKER'                 'INTORG'
    ind_disjunction_1_disjunct_1  OBJ       1254
    ind_disjunction_1_disjunct_1  c_disjunction_1_diajunct_1  -133
    ind_disjunction_1_disjunct_1  R25       1
    ind_disjunction_2_disjunct_1  OBJ       1254
    ind_disjunction_2_disjunct_1  c_disjunction_2_diajunct_1  -133
    ind_disjunction_2_disjunct_1  R28       1
    ind_disjunction_3_disjunct_1  OBJ       1254
    ind_disjunction_3_disjunct_1  c_disjunction_3_diajunct_1  -133
    ind_disjunction_3_disjunct_1  R31       1
    ind_disjunction_4_disjunct_1  OBJ       1254
    ind_disjunction_4_disjunct_1  c_disjunction_4_diajunct_1  -133
    ind_disjunction_4_disjunct_1  R34       1
    ind_disjunction_5_disjunct_1  OBJ       1254
    ind_disjunction_5_disjunct_1  c_disjunction_5_diajunct_1  -133
    ind_disjunction_5_disjunct_1  R37       1
    ind_disjunction_6_disjunct_1  OBJ       1254
    ind_disjunction_6_disjunct_1  c_disjunction_6_diajunct_1  -133
    ind_disjunction_6_disjunct_1  R40       1
    ind_disjunction_7_disjunct_1  OBJ       1254
    ind_disjunction_7_disjunct_1  c_disjunction_7_diajunct_1  -133
    ind_disjunction_7_disjunct_1  R43       1
    ind_disjunction_8_disjunct_1  OBJ       1254
    ind_disjunction_8_disjunct_1  c_disjunction_8_diajunct_1  -133
    ind_disjunction_8_disjunct_1  R46       1
    ind_disjunction_9_disjunct_1  OBJ       1254
    ind_disjunction_9_disjunct_1  c_disjunction_9_diajunct_1  -133
    ind_disjunction_9_disjunct_1  R49       1
    ind_disjunction_10_disjunct_1  OBJ       1254
    ind_disjunction_10_disjunct_1  c_disjunction_10_diajunct_1  -133
    ind_disjunction_10_disjunct_1  R52       1
    ind_disjunction_11_disjunct_1  OBJ       1254
    ind_disjunction_11_disjunct_1  c_disjunction_11_diajunct_1  -133
    ind_disjunction_11_disjunct_1  R55       1
    ind_disjunction_12_disjunct_1  OBJ       1254
    ind_disjunction_12_disjunct_1  c_disjunction_12_diajunct_1  -133
    ind_disjunction_12_disjunct_1  R58       1
    ind_disjunction_13_disjunct_1  OBJ       1254
    ind_disjunction_13_disjunct_1  c_disjunction_13_diajunct_1  -133
    ind_disjunction_13_disjunct_1  R61       1
    ind_disjunction_14_disjunct_1  OBJ       1254
    ind_disjunction_14_disjunct_1  c_disjunction_14_diajunct_1  -133
    ind_disjunction_14_disjunct_1  R64       1
    ind_disjunction_15_disjunct_1  OBJ       1254
    ind_disjunction_15_disjunct_1  c_disjunction_15_diajunct_1  -133
    ind_disjunction_15_disjunct_1  R67       1
    ind_disjunction_16_disjunct_1  OBJ       1254
    ind_disjunction_16_disjunct_1  c_disjunction_16_diajunct_1  -133
    ind_disjunction_16_disjunct_1  R70       1
    ind_disjunction_17_disjunct_1  OBJ       1254
    ind_disjunction_17_disjunct_1  c_disjunction_17_diajunct_1  -133
    ind_disjunction_17_disjunct_1  R73       1
    ind_disjunction_18_disjunct_1  OBJ       1254
    ind_disjunction_18_disjunct_1  c_disjunction_18_diajunct_1  -133
    ind_disjunction_18_disjunct_1  R76       1
    ind_disjunction_19_disjunct_1  OBJ       1254
    ind_disjunction_19_disjunct_1  c_disjunction_19_diajunct_1  -133
    ind_disjunction_19_disjunct_1  R79       1
    ind_disjunction_20_disjunct_1  OBJ       1254
    ind_disjunction_20_disjunct_1  c_disjunction_20_diajunct_1  -133
    ind_disjunction_20_disjunct_1  R82       1
    ind_disjunction_21_disjunct_1  OBJ       1254
    ind_disjunction_21_disjunct_1  c_disjunction_21_diajunct_1  -133
    ind_disjunction_21_disjunct_1  R85       1
    ind_disjunction_22_disjunct_1  OBJ       1254
    ind_disjunction_22_disjunct_1  c_disjunction_22_diajunct_1  -133
    ind_disjunction_22_disjunct_1  R88       1
    ind_disjunction_23_disjunct_1  OBJ       1254
    ind_disjunction_23_disjunct_1  c_disjunction_23_diajunct_1  -133
    ind_disjunction_23_disjunct_1  R91       1
    ind_disjunction_1_disjunct_2  c_disjunction_1_disjunct_2  2
    ind_disjunction_1_disjunct_2  R25       1
    ind_disjunction_2_disjunct_2  c_disjunction_2_disjunct_2  2
    ind_disjunction_2_disjunct_2  R28       1
    ind_disjunction_3_disjunct_2  c_disjunction_3_disjunct_2  3
    ind_disjunction_3_disjunct_2  R31       1
    ind_disjunction_4_disjunct_2  c_disjunction_4_disjunct_2  1
    ind_disjunction_4_disjunct_2  R34       1
    ind_disjunction_5_disjunct_2  c_disjunction_5_disjunct_2  2
    ind_disjunction_5_disjunct_2  R37       1
    ind_disjunction_6_disjunct_2  c_disjunction_6_disjunct_2  1
    ind_disjunction_6_disjunct_2  R40       1
    ind_disjunction_7_disjunct_2  c_disjunction_7_disjunct_2  3
    ind_disjunction_7_disjunct_2  R43       1
    ind_disjunction_8_disjunct_2  c_disjunction_8_disjunct_2  2
    ind_disjunction_8_disjunct_2  R46       1
    ind_disjunction_9_disjunct_2  c_disjunction_9_disjunct_2  3
    ind_disjunction_9_disjunct_2  R49       1
    ind_disjunction_10_disjunct_2  c_disjunction_10_disjunct_2  2
    ind_disjunction_10_disjunct_2  R52       1
    ind_disjunction_11_disjunct_2  c_disjunction_11_disjunct_2  2
    ind_disjunction_11_disjunct_2  R55       1
    ind_disjunction_12_disjunct_2  c_disjunction_12_disjunct_2  2
    ind_disjunction_12_disjunct_2  R58       1
    ind_disjunction_13_disjunct_2  c_disjunction_13_disjunct_2  1
    ind_disjunction_13_disjunct_2  R61       1
    ind_disjunction_14_disjunct_2  c_disjunction_14_disjunct_2  2
    ind_disjunction_14_disjunct_2  R64       1
    ind_disjunction_15_disjunct_2  c_disjunction_15_disjunct_2  1
    ind_disjunction_15_disjunct_2  R67       1
    ind_disjunction_16_disjunct_2  c_disjunction_16_disjunct_2  3
    ind_disjunction_16_disjunct_2  R70       1
    ind_disjunction_17_disjunct_2  c_disjunction_17_disjunct_2  2
    ind_disjunction_17_disjunct_2  R73       1
    ind_disjunction_18_disjunct_2  c_disjunction_18_disjunct_2  2
    ind_disjunction_18_disjunct_2  R76       1
    ind_disjunction_19_disjunct_2  c_disjunction_19_disjunct_2  1
    ind_disjunction_19_disjunct_2  R79       1
    ind_disjunction_20_disjunct_2  c_disjunction_20_disjunct_2  3
    ind_disjunction_20_disjunct_2  R82       1
    ind_disjunction_21_disjunct_2  c_disjunction_21_disjunct_2  1
    ind_disjunction_21_disjunct_2  R85       1
    ind_disjunction_22_disjunct_2  c_disjunction_22_disjunct_2  3
    ind_disjunction_22_disjunct_2  R88       1
    ind_disjunction_23_disjunct_2  c_disjunction_23_disjunct_2  2
    ind_disjunction_23_disjunct_2  R91       1
    x[1,1]    demand_1  1
    x[1,1]    c_disjunction_1_diajunct_1  29
    x[1,1]    c_disjunction_1_disjunct_2  1
    x[12,1]   OBJ       62.8
    x[12,1]   demand_1  1
    x[12,1]   c_disjunction_12_diajunct_1  29
    x[12,1]   c_disjunction_12_disjunct_2  1
    x[2,2]    demand_2  1
    x[2,2]    c_disjunction_2_diajunct_1  6
    x[2,2]    c_disjunction_2_disjunct_2  1
    x[9,2]    OBJ       2.7
    x[9,2]    demand_2  1
    x[9,2]    c_disjunction_9_diajunct_1  6
    x[9,2]    c_disjunction_9_disjunct_2  1
    x[3,3]    demand_3  1
    x[3,3]    c_disjunction_3_diajunct_1  9
    x[3,3]    c_disjunction_3_disjunct_2  1
    x[9,3]    OBJ       1.1
    x[9,3]    demand_3  1
    x[9,3]    c_disjunction_9_diajunct_1  9
    x[9,3]    c_disjunction_9_disjunct_2  1
    x[4,4]    demand_4  1
    x[4,4]    c_disjunction_4_diajunct_1  33
    x[4,4]    c_disjunction_4_disjunct_2  1
    x[20,4]   OBJ       68.8
    x[20,4]   demand_4  1
    x[20,4]   c_disjunction_20_diajunct_1  33
    x[20,4]   c_disjunction_20_disjunct_2  1
    x[5,5]    demand_5  1
    x[5,5]    c_disjunction_5_diajunct_1  21
    x[5,5]    c_disjunction_5_disjunct_2  1
    x[11,5]   OBJ       16.6
    x[11,5]   demand_5  1
    x[11,5]   c_disjunction_11_diajunct_1  21
    x[11,5]   c_disjunction_11_disjunct_2  1
    x[6,6]    demand_6  1
    x[6,6]    c_disjunction_6_diajunct_1  18
    x[6,6]    c_disjunction_6_disjunct_2  1
    x[22,6]   OBJ       35.2
    x[22,6]   demand_6  1
    x[22,6]   c_disjunction_22_diajunct_1  18
    x[22,6]   c_disjunction_22_disjunct_2  1
    x[7,7]    demand_7  1
    x[7,7]    c_disjunction_7_diajunct_1  26
    x[7,7]    c_disjunction_7_disjunct_2  1
    x[23,7]   OBJ       13
    x[23,7]   demand_7  1
    x[23,7]   c_disjunction_23_diajunct_1  26
    x[23,7]   c_disjunction_23_disjunct_2  1
    x[8,8]    demand_8  1
    x[8,8]    c_disjunction_8_diajunct_1  10
    x[8,8]    c_disjunction_8_disjunct_2  1
    x[20,8]   OBJ       18
    x[20,8]   demand_8  1
    x[20,8]   c_disjunction_20_diajunct_1  10
    x[20,8]   c_disjunction_20_disjunct_2  1
    x[9,9]    demand_9  1
    x[9,9]    c_disjunction_9_diajunct_1  29
    x[9,9]    c_disjunction_9_disjunct_2  1
    x[3,9]    OBJ       3.6
    x[3,9]    demand_9  1
    x[3,9]    c_disjunction_3_diajunct_1  29
    x[3,9]    c_disjunction_3_disjunct_2  1
    x[10,10]  demand_10  1
    x[10,10]  c_disjunction_10_diajunct_1  32
    x[10,10]  c_disjunction_10_disjunct_2  1
    x[16,10]  OBJ       50.6
    x[16,10]  demand_10  1
    x[16,10]  c_disjunction_16_diajunct_1  32
    x[16,10]  c_disjunction_16_disjunct_2  1
    x[11,11]  demand_11  1
    x[11,11]  c_disjunction_11_diajunct_1  26
    x[11,11]  c_disjunction_11_disjunct_2  1
    x[5,11]   OBJ       20.5
    x[5,11]   demand_11  1
    x[5,11]   c_disjunction_5_diajunct_1  26
    x[5,11]   c_disjunction_5_disjunct_2  1
    x[12,12]  demand_12  1
    x[12,12]  c_disjunction_12_diajunct_1  25
    x[12,12]  c_disjunction_12_disjunct_2  1
    x[1,12]   OBJ       54.1
    x[1,12]   demand_12  1
    x[1,12]   c_disjunction_1_diajunct_1  25
    x[1,12]   c_disjunction_1_disjunct_2  1
    x[13,13]  demand_13  1
    x[13,13]  c_disjunction_13_diajunct_1  18
    x[13,13]  c_disjunction_13_disjunct_2  1
    x[2,13]   OBJ       15.5
    x[2,13]   demand_13  1
    x[2,13]   c_disjunction_2_diajunct_1  18
    x[2,13]   c_disjunction_2_disjunct_2  1
    x[14,14]  demand_14  1
    x[14,14]  c_disjunction_14_diajunct_1  26
    x[14,14]  c_disjunction_14_disjunct_2  1
    x[18,14]  OBJ       36.1
    x[18,14]  demand_14  1
    x[18,14]  c_disjunction_18_diajunct_1  26
    x[18,14]  c_disjunction_18_disjunct_2  1
    x[15,15]  demand_15  1
    x[15,15]  c_disjunction_15_diajunct_1  32
    x[15,15]  c_disjunction_15_disjunct_2  1
    x[3,15]   OBJ       12
    x[3,15]   demand_15  1
    x[3,15]   c_disjunction_3_diajunct_1  32
    x[3,15]   c_disjunction_3_disjunct_2  1
    x[16,16]  demand_16  1
    x[16,16]  c_disjunction_16_diajunct_1  33
    x[16,16]  c_disjunction_16_disjunct_2  1
    x[10,16]  OBJ       52.2
    x[10,16]  demand_16  1
    x[10,16]  c_disjunction_10_diajunct_1  33
    x[10,16]  c_disjunction_10_disjunct_2  1
    x[17,17]  demand_17  1
    x[17,17]  c_disjunction_17_diajunct_1  7
    x[17,17]  c_disjunction_17_disjunct_2  1
    x[22,17]  OBJ       13.5
    x[22,17]  demand_17  1
    x[22,17]  c_disjunction_22_diajunct_1  7
    x[22,17]  c_disjunction_22_disjunct_2  1
    x[18,18]  demand_18  1
    x[18,18]  c_disjunction_18_diajunct_1  13
    x[18,18]  c_disjunction_18_disjunct_2  1
    x[14,18]  OBJ       18.1
    x[14,18]  demand_18  1
    x[14,18]  c_disjunction_14_diajunct_1  13
    x[14,18]  c_disjunction_14_disjunct_2  1
    x[19,19]  demand_19  1
    x[19,19]  c_disjunction_19_diajunct_1  30
    x[19,19]  c_disjunction_19_disjunct_2  1
    x[7,19]   OBJ       38.9
    x[7,19]   demand_19  1
    x[7,19]   c_disjunction_7_diajunct_1  30
    x[7,19]   c_disjunction_7_disjunct_2  1
    x[20,20]  demand_20  1
    x[20,20]  c_disjunction_20_diajunct_1  30
    x[20,20]  c_disjunction_20_disjunct_2  1
    x[8,20]   OBJ       53.9
    x[8,20]   demand_20  1
    x[8,20]   c_disjunction_8_diajunct_1  30
    x[8,20]   c_disjunction_8_disjunct_2  1
    x[21,21]  demand_21  1
    x[21,21]  c_disjunction_21_diajunct_1  19
    x[21,21]  c_disjunction_21_disjunct_2  1
    x[16,21]  OBJ       34.2
    x[16,21]  demand_21  1
    x[16,21]  c_disjunction_16_diajunct_1  19
    x[16,21]  c_disjunction_16_disjunct_2  1
    x[22,22]  demand_22  1
    x[22,22]  c_disjunction_22_diajunct_1  30
    x[22,22]  c_disjunction_22_disjunct_2  1
    x[17,22]  OBJ       58
    x[17,22]  demand_22  1
    x[17,22]  c_disjunction_17_diajunct_1  30
    x[17,22]  c_disjunction_17_disjunct_2  1
    x[23,23]  demand_23  1
    x[23,23]  c_disjunction_23_diajunct_1  11
    x[23,23]  c_disjunction_23_disjunct_2  1
    x[7,23]   OBJ       5.5
    x[7,23]   demand_23  1
    x[7,23]   c_disjunction_7_diajunct_1  11
    x[7,23]   c_disjunction_7_disjunct_2  1
    MARKER    'MARKER'                 'INTEND'
RHS
    RHS1      demand_1  1
    RHS1      demand_2  1
    RHS1      demand_3  1
    RHS1      demand_4  1
    RHS1      demand_5  1
    RHS1      demand_6  1
    RHS1      demand_7  1
    RHS1      demand_8  1
    RHS1      demand_9  1
    RHS1      demand_10  1
    RHS1      demand_11  1
    RHS1      demand_12  1
    RHS1      demand_13  1
    RHS1      demand_14  1
    RHS1      demand_15  1
    RHS1      demand_16  1
    RHS1      demand_17  1
    RHS1      demand_18  1
    RHS1      demand_19  1
    RHS1      demand_20  1
    RHS1      demand_21  1
    RHS1      demand_22  1
    RHS1      demand_23  1
    RHS1      c_disjunction_1_disjunct_2  2
    RHS1      R25       1
    RHS1      c_disjunction_2_disjunct_2  2
    RHS1      R28       1
    RHS1      c_disjunction_3_disjunct_2  3
    RHS1      R31       1
    RHS1      c_disjunction_4_disjunct_2  1
    RHS1      R34       1
    RHS1      c_disjunction_5_disjunct_2  2
    RHS1      R37       1
    RHS1      c_disjunction_6_disjunct_2  1
    RHS1      R40       1
    RHS1      c_disjunction_7_disjunct_2  3
    RHS1      R43       1
    RHS1      c_disjunction_8_disjunct_2  2
    RHS1      R46       1
    RHS1      c_disjunction_9_disjunct_2  3
    RHS1      R49       1
    RHS1      c_disjunction_10_disjunct_2  2
    RHS1      R52       1
    RHS1      c_disjunction_11_disjunct_2  2
    RHS1      R55       1
    RHS1      c_disjunction_12_disjunct_2  2
    RHS1      R58       1
    RHS1      c_disjunction_13_disjunct_2  1
    RHS1      R61       1
    RHS1      c_disjunction_14_disjunct_2  2
    RHS1      R64       1
    RHS1      c_disjunction_15_disjunct_2  1
    RHS1      R67       1
    RHS1      c_disjunction_16_disjunct_2  3
    RHS1      R70       1
    RHS1      c_disjunction_17_disjunct_2  2
    RHS1      R73       1
    RHS1      c_disjunction_18_disjunct_2  2
    RHS1      R76       1
    RHS1      c_disjunction_19_disjunct_2  1
    RHS1      R79       1
    RHS1      c_disjunction_20_disjunct_2  3
    RHS1      R82       1
    RHS1      c_disjunction_21_disjunct_2  1
    RHS1      R85       1
    RHS1      c_disjunction_22_disjunct_2  3
    RHS1      R88       1
    RHS1      c_disjunction_23_disjunct_2  2
    RHS1      R91       1
BOUNDS
 BV BND1      ind_disjunction_1_disjunct_1
 BV BND1      ind_disjunction_2_disjunct_1
 BV BND1      ind_disjunction_3_disjunct_1
 BV BND1      ind_disjunction_4_disjunct_1
 BV BND1      ind_disjunction_5_disjunct_1
 BV BND1      ind_disjunction_6_disjunct_1
 BV BND1      ind_disjunction_7_disjunct_1
 BV BND1      ind_disjunction_8_disjunct_1
 BV BND1      ind_disjunction_9_disjunct_1
 BV BND1      ind_disjunction_10_disjunct_1
 BV BND1      ind_disjunction_11_disjunct_1
 BV BND1      ind_disjunction_12_disjunct_1
 BV BND1      ind_disjunction_13_disjunct_1
 BV BND1      ind_disjunction_14_disjunct_1
 BV BND1      ind_disjunction_15_disjunct_1
 BV BND1      ind_disjunction_16_disjunct_1
 BV BND1      ind_disjunction_17_disjunct_1
 BV BND1      ind_disjunction_18_disjunct_1
 BV BND1      ind_disjunction_19_disjunct_1
 BV BND1      ind_disjunction_20_disjunct_1
 BV BND1      ind_disjunction_21_disjunct_1
 BV BND1      ind_disjunction_22_disjunct_1
 BV BND1      ind_disjunction_23_disjunct_1
 BV BND1      ind_disjunction_1_disjunct_2
 BV BND1      ind_disjunction_2_disjunct_2
 BV BND1      ind_disjunction_3_disjunct_2
 BV BND1      ind_disjunction_4_disjunct_2
 BV BND1      ind_disjunction_5_disjunct_2
 BV BND1      ind_disjunction_6_disjunct_2
 BV BND1      ind_disjunction_7_disjunct_2
 BV BND1      ind_disjunction_8_disjunct_2
 BV BND1      ind_disjunction_9_disjunct_2
 BV BND1      ind_disjunction_10_disjunct_2
 BV BND1      ind_disjunction_11_disjunct_2
 BV BND1      ind_disjunction_12_disjunct_2
 BV BND1      ind_disjunction_13_disjunct_2
 BV BND1      ind_disjunction_14_disjunct_2
 BV BND1      ind_disjunction_15_disjunct_2
 BV BND1      ind_disjunction_16_disjunct_2
 BV BND1      ind_disjunction_17_disjunct_2
 BV BND1      ind_disjunction_18_disjunct_2
 BV BND1      ind_disjunction_19_disjunct_2
 BV BND1      ind_disjunction_20_disjunct_2
 BV BND1      ind_disjunction_21_disjunct_2
 BV BND1      ind_disjunction_22_disjunct_2
 BV BND1      ind_disjunction_23_disjunct_2
 BV BND1      x[1,1]  
 BV BND1      x[12,1] 
 BV BND1      x[2,2]  
 BV BND1      x[9,2]  
 BV BND1      x[3,3]  
 BV BND1      x[9,3]  
 BV BND1      x[4,4]  
 BV BND1      x[20,4] 
 BV BND1      x[5,5]  
 BV BND1      x[11,5] 
 BV BND1      x[6,6]  
 BV BND1      x[22,6] 
 BV BND1      x[7,7]  
 BV BND1      x[23,7] 
 BV BND1      x[8,8]  
 BV BND1      x[20,8] 
 BV BND1      x[9,9]  
 BV BND1      x[3,9]  
 BV BND1      x[10,10]
 BV BND1      x[16,10]
 BV BND1      x[11,11]
 BV BND1      x[5,11] 
 BV BND1      x[12,12]
 BV BND1      x[1,12] 
 BV BND1      x[13,13]
 BV BND1      x[2,13] 
 BV BND1      x[14,14]
 BV BND1      x[18,14]
 BV BND1      x[15,15]
 BV BND1      x[3,15] 
 BV BND1      x[16,16]
 BV BND1      x[10,16]
 BV BND1      x[17,17]
 BV BND1      x[22,17]
 BV BND1      x[18,18]
 BV BND1      x[14,18]
 BV BND1      x[19,19]
 BV BND1      x[7,19] 
 BV BND1      x[20,20]
 BV BND1      x[8,20] 
 BV BND1      x[21,21]
 BV BND1      x[16,21]
 BV BND1      x[22,22]
 BV BND1      x[17,22]
 BV BND1      x[23,23]
 BV BND1      x[7,23] 
ENDATA
